91
34
66
53
68
44
39
89
84
59
65
15
78
103
30
48
37
76
81
61
16
97
21
95
62
101
85
3
41
54
73
1
77
94
104
29
100
64
79
110
4
92
88
13
31
74
36
17
80
49
93
5
46
58
35
43
86
20
42
105
18
52
98
96
6
90
71
45
38
83
23
70
69
108
63
10
75
2
57
56
14
19
33
22
55
87
11
8
28
72
60
109
26
9
24
7
0
32
67
40
